NAME: sphere_rand_ol_10x1
COMMENT: type = sphere, neigh_ang = 0.174532925199, neigh_size = 10
COMMENT: sphere_limit = 1.0471975512, rect_limit = [-1.0471975512, 0.785398163397, -0.785398163397, 1.74532925199]
TYPE: GTSP
DIMENSION: 10
GTSP_SETS: 10
EDGE_WEIGHT_TYPE: GEOM
NODE_COORD_SECTION:
1 -131.62887212 44.0166575315
2 94.9588628316 -29.3315082567
3 -1.6433686469 -5.79778698405
4 54.5734701802 35.2711569362
5 -146.210548761 -70.6142166126
6 120.875437411 -7.72773454647
7 94.4208296849 -84.7393443908
8 -19.6606101403 26.3005671428
9 -97.6456003426 62.9413568632
10 144.51388474 -69.8543314119
GTSP_SET_SECTION:
1 1 -1
2 2 -1
3 3 -1
4 4 -1
5 5 -1
6 6 -1
7 7 -1
8 8 -1
9 9 -1
10 10 -1
EOF